p cnf 12 50 
10 8 -5 0
-8 -11 5 0
-11 -4 -7 0
12 -1 3 0
-1 -4 -12 0
-9 6 11 0
7 6 -1 0
11 -6 -4 0
-2 -1 -9 0
5 -2 4 0
-4 1 12 0
-7 11 -2 0
-11 -8 -4 0
-9 -11 -7 0
11 4 1 0
4 -6 -3 0
11 6 -10 0
-7 -12 8 0
11 10 -7 0
7 10 12 0
-12 8 5 0
9 -5 -7 0
-9 10 -4 0
3 10 -1 0
1 9 -6 0
-8 6 12 0
1 4 6 0
1 4 10 0
8 -12 -7 0
10 -8 12 0
-3 4 -2 0
-9 3 8 0
-7 -6 -1 0
-7 -6 -1 0
5 -12 -7 0
-10 -11 -3 0
-6 -9 5 0
-8 5 -9 0
-9 7 -4 0
1 3 7 0
2 -4 12 0
-10 4 -11 0
9 8 1 0
-7 -5 -1 0
-1 -10 -5 0
-11 -5 12 0
-3 -6 -1 0
8 -3 1 0
4 -8 -6 0
-6 5 -1 0
